\ENCODING=ISO-8859-1
\Problem name: 

Maximize
 obj: - 5.29831736654804 c_minus_0_0 - 5.29831736654804 c_minus_0_1
      - 5.29831736654804 c_minus_0_2 - 2.30258509299405 c_minus_1_0
      - 5.29831736654804 c_minus_1_1 - 5.29831736654804 c_minus_1_2
      - 2.30258509299405 c_minus_2_0 - 2.30258509299405 c_minus_2_1
      - 5.29831736654804 c_minus_2_2 - 2.30258509299405 c_minus_3_0
      - 5.29831736654804 c_minus_3_1 - 0.22314355131421 c_minus_3_2
      - 0.0100503358535015 c_zero_0_0 - 0.0100503358535015 c_zero_0_1
      - 0.0100503358535015 c_zero_0_2 - 0.22314355131421 c_zero_1_0
      - 0.0100503358535015 c_zero_1_1 - 0.0100503358535015 c_zero_1_2
      - 0.22314355131421 c_zero_2_0 - 2.30258509299405 c_zero_2_1
      - 0.0100503358535015 c_zero_2_2 - 0.22314355131421 c_zero_3_0
      - 0.0100503358535015 c_zero_3_1 - 2.30258509299405 c_zero_3_2
      - 5.29831736654804 c_plus_0_0 - 5.29831736654804 c_plus_0_1
      - 5.29831736654804 c_plus_0_2 - 2.30258509299405 c_plus_1_0
      - 5.29831736654804 c_plus_1_1 - 5.29831736654804 c_plus_1_2
      - 2.30258509299405 c_plus_2_0 - 0.22314355131421 c_plus_2_1
      - 5.29831736654804 c_plus_2_2 - 2.30258509299405 c_plus_3_0
      - 5.29831736654804 c_plus_3_1 - 2.30258509299405 c_plus_3_2
Subject To
 c1:   c_0_0 + c_0_1 + c_0_2 >= 0.99999
 c2:   c_1_0 + c_1_1 + c_1_2 >= 0.99999
 c3:   c_2_0 + c_2_1 + c_2_2 >= 0.99999
 c4:   c_3_0 + c_3_1 + c_3_2 >= 0.99999
 c5:   c_0_0 + c_0_1 + c_0_2 <= 1.00001
 c6:   c_1_0 + c_1_1 + c_1_2 <= 1.00001
 c7:   c_2_0 + c_2_1 + c_2_2 <= 1.00001
 c8:   c_3_0 + c_3_1 + c_3_2 <= 1.00001
 c9:   0.324253721604735 c_0_0 + 0.428720468865092 c_1_0
       + 0.165970043436661 c_2_0 + 0.081055766093512 c_3_0  = 0.339545741996028
 c10:  0.324253721604735 c_0_1 + 0.428720468865092 c_1_1
       + 0.165970043436661 c_2_1 + 0.081055766093512 c_3_1  = 0.327311005950696
 c11:  0.324253721604735 c_0_2 + 0.428720468865092 c_1_2
       + 0.165970043436661 c_2_2 + 0.081055766093512 c_3_2  = 0.333143252053275
 c12:  c_minus_0_0 + c_zero_0_0 + c_plus_0_0  = 1
 c13:  c_minus_0_1 + c_zero_0_1 + c_plus_0_1  = 1
 c14:  c_minus_0_2 + c_zero_0_2 + c_plus_0_2  = 1
 c15:  c_minus_1_0 + c_zero_1_0 + c_plus_1_0  = 1
 c16:  c_minus_1_1 + c_zero_1_1 + c_plus_1_1  = 1
 c17:  c_minus_1_2 + c_zero_1_2 + c_plus_1_2  = 1
 c18:  c_minus_2_0 + c_zero_2_0 + c_plus_2_0  = 1
 c19:  c_minus_2_1 + c_zero_2_1 + c_plus_2_1  = 1
 c20:  c_minus_2_2 + c_zero_2_2 + c_plus_2_2  = 1
 c21:  c_minus_3_0 + c_zero_3_0 + c_plus_3_0  = 1
 c22:  c_minus_3_1 + c_zero_3_1 + c_plus_3_1  = 1
 c23:  c_minus_3_2 + c_zero_3_2 + c_plus_3_2  = 1
 c24:  c_0_0 + c_minus_0_0 >= 0.333333333333333
 c25:  c_0_1 + c_minus_0_1 >= 0.333333333333333
 c26:  c_0_2 + c_minus_0_2 >= 0.333333333333333
 c27:  c_1_0 + c_minus_1_0 >= 0.333333333333333
 c28:  c_1_1 + c_minus_1_1 >= 0.333333333333333
 c29:  c_1_2 + c_minus_1_2 >= 0.333333333333333
 c30:  c_2_0 + c_minus_2_0 >= 0.333333333333333
 c31:  c_2_1 + c_minus_2_1 >= 0.333333333333333
 c32:  c_2_2 + c_minus_2_2 >= 0.333333333333333
 c33:  c_3_0 + c_minus_3_0 >= 0.333333333333333
 c34:  c_3_1 + c_minus_3_1 >= 0.333333333333333
 c35:  c_3_2 + c_minus_3_2 >= 0.333333333333333
 c36:  - c_0_0 + c_plus_0_0 >= -0.333333333333333
 c37:  - c_0_1 + c_plus_0_1 >= -0.333333333333333
 c38:  - c_0_2 + c_plus_0_2 >= -0.333333333333333
 c39:  - c_1_0 + c_plus_1_0 >= -0.333333333333333
 c40:  - c_1_1 + c_plus_1_1 >= -0.333333333333333
 c41:  - c_1_2 + c_plus_1_2 >= -0.333333333333333
 c42:  - c_2_0 + c_plus_2_0 >= -0.333333333333333
 c43:  - c_2_1 + c_plus_2_1 >= -0.333333333333333
 c44:  - c_2_2 + c_plus_2_2 >= -0.333333333333333
 c45:  - c_3_0 + c_plus_3_0 >= -0.333333333333333
 c46:  - c_3_1 + c_plus_3_1 >= -0.333333333333333
 c47:  - c_3_2 + c_plus_3_2 >= -0.333333333333333
 c48:  - c_minus_0_0 + f_minus_0_0 <= 0
 c49:  - c_minus_0_1 + f_minus_0_1 <= 0
 c50:  - c_minus_0_2 + f_minus_0_2 <= 0
 c51:  - c_minus_1_0 + f_minus_1_0 <= 0
 c52:  - c_minus_1_1 + f_minus_1_1 <= 0
 c53:  - c_minus_1_2 + f_minus_1_2 <= 0
 c54:  - c_minus_2_0 + f_minus_2_0 <= 0
 c55:  - c_minus_2_1 + f_minus_2_1 <= 0
 c56:  - c_minus_2_2 + f_minus_2_2 <= 0
 c57:  - c_minus_3_0 + f_minus_3_0 <= 0
 c58:  - c_minus_3_1 + f_minus_3_1 <= 0
 c59:  - c_minus_3_2 + f_minus_3_2 <= 0
 c60:  - c_0_0 + f_minus_0_0 <= 0
 c61:  - c_0_1 + f_minus_0_1 <= 0
 c62:  - c_0_2 + f_minus_0_2 <= 0
 c63:  - c_1_0 + f_minus_1_0 <= 0
 c64:  - c_1_1 + f_minus_1_1 <= 0
 c65:  - c_1_2 + f_minus_1_2 <= 0
 c66:  - c_2_0 + f_minus_2_0 <= 0
 c67:  - c_2_1 + f_minus_2_1 <= 0
 c68:  - c_2_2 + f_minus_2_2 <= 0
 c69:  - c_3_0 + f_minus_3_0 <= 0
 c70:  - c_3_1 + f_minus_3_1 <= 0
 c71:  - c_3_2 + f_minus_3_2 <= 0
 c72:  - c_0_0 - c_minus_0_0 + f_minus_0_0 >= -1
 c73:  - c_0_1 - c_minus_0_1 + f_minus_0_1 >= -1
 c74:  - c_0_2 - c_minus_0_2 + f_minus_0_2 >= -1
 c75:  - c_1_0 - c_minus_1_0 + f_minus_1_0 >= -1
 c76:  - c_1_1 - c_minus_1_1 + f_minus_1_1 >= -1
 c77:  - c_1_2 - c_minus_1_2 + f_minus_1_2 >= -1
 c78:  - c_2_0 - c_minus_2_0 + f_minus_2_0 >= -1
 c79:  - c_2_1 - c_minus_2_1 + f_minus_2_1 >= -1
 c80:  - c_2_2 - c_minus_2_2 + f_minus_2_2 >= -1
 c81:  - c_3_0 - c_minus_3_0 + f_minus_3_0 >= -1
 c82:  - c_3_1 - c_minus_3_1 + f_minus_3_1 >= -1
 c83:  - c_3_2 - c_minus_3_2 + f_minus_3_2 >= -1
 c84:  - c_plus_0_0 + f_plus_0_0 <= 0
 c85:  - c_plus_0_1 + f_plus_0_1 <= 0
 c86:  - c_plus_0_2 + f_plus_0_2 <= 0
 c87:  - c_plus_1_0 + f_plus_1_0 <= 0
 c88:  - c_plus_1_1 + f_plus_1_1 <= 0
 c89:  - c_plus_1_2 + f_plus_1_2 <= 0
 c90:  - c_plus_2_0 + f_plus_2_0 <= 0
 c91:  - c_plus_2_1 + f_plus_2_1 <= 0
 c92:  - c_plus_2_2 + f_plus_2_2 <= 0
 c93:  - c_plus_3_0 + f_plus_3_0 <= 0
 c94:  - c_plus_3_1 + f_plus_3_1 <= 0
 c95:  - c_plus_3_2 + f_plus_3_2 <= 0
 c96:  - c_0_0 + f_plus_0_0 <= 0
 c97:  - c_0_1 + f_plus_0_1 <= 0
 c98:  - c_0_2 + f_plus_0_2 <= 0
 c99:  - c_1_0 + f_plus_1_0 <= 0
 c100: - c_1_1 + f_plus_1_1 <= 0
 c101: - c_1_2 + f_plus_1_2 <= 0
 c102: - c_2_0 + f_plus_2_0 <= 0
 c103: - c_2_1 + f_plus_2_1 <= 0
 c104: - c_2_2 + f_plus_2_2 <= 0
 c105: - c_3_0 + f_plus_3_0 <= 0
 c106: - c_3_1 + f_plus_3_1 <= 0
 c107: - c_3_2 + f_plus_3_2 <= 0
 c108: - c_0_0 - c_plus_0_0 + f_plus_0_0 >= -1
 c109: - c_0_1 - c_plus_0_1 + f_plus_0_1 >= -1
 c110: - c_0_2 - c_plus_0_2 + f_plus_0_2 >= -1
 c111: - c_1_0 - c_plus_1_0 + f_plus_1_0 >= -1
 c112: - c_1_1 - c_plus_1_1 + f_plus_1_1 >= -1
 c113: - c_1_2 - c_plus_1_2 + f_plus_1_2 >= -1
 c114: - c_2_0 - c_plus_2_0 + f_plus_2_0 >= -1
 c115: - c_2_1 - c_plus_2_1 + f_plus_2_1 >= -1
 c116: - c_2_2 - c_plus_2_2 + f_plus_2_2 >= -1
 c117: - c_3_0 - c_plus_3_0 + f_plus_3_0 >= -1
 c118: - c_3_1 - c_plus_3_1 + f_plus_3_1 >= -1
 c119: - c_3_2 - c_plus_3_2 + f_plus_3_2 >= -1
 c120: c_minus_0_0 + f_minus_0_0 <= 1.33332333333333
 c121: c_minus_0_1 + f_minus_0_1 <= 1.33332333333333
 c122: c_minus_0_2 + f_minus_0_2 <= 1.33332333333333
 c123: c_minus_1_0 + f_minus_1_0 <= 1.33332333333333
 c124: c_minus_1_1 + f_minus_1_1 <= 1.33332333333333
 c125: c_minus_1_2 + f_minus_1_2 <= 1.33332333333333
 c126: c_minus_2_0 + f_minus_2_0 <= 1.33332333333333
 c127: c_minus_2_1 + f_minus_2_1 <= 1.33332333333333
 c128: c_minus_2_2 + f_minus_2_2 <= 1.33332333333333
 c129: c_minus_3_0 + f_minus_3_0 <= 1.33332333333333
 c130: c_minus_3_1 + f_minus_3_1 <= 1.33332333333333
 c131: c_minus_3_2 + f_minus_3_2 <= 1.33332333333333
 c132: - c_plus_0_0 + f_plus_0_0 >= -0.666656666666667
 c133: - c_plus_0_1 + f_plus_0_1 >= -0.666656666666667
 c134: - c_plus_0_2 + f_plus_0_2 >= -0.666656666666667
 c135: - c_plus_1_0 + f_plus_1_0 >= -0.666656666666667
 c136: - c_plus_1_1 + f_plus_1_1 >= -0.666656666666667
 c137: - c_plus_1_2 + f_plus_1_2 >= -0.666656666666667
 c138: - c_plus_2_0 + f_plus_2_0 >= -0.666656666666667
 c139: - c_plus_2_1 + f_plus_2_1 >= -0.666656666666667
 c140: - c_plus_2_2 + f_plus_2_2 >= -0.666656666666667
 c141: - c_plus_3_0 + f_plus_3_0 >= -0.666656666666667
 c142: - c_plus_3_1 + f_plus_3_1 >= -0.666656666666667
 c143: - c_plus_3_2 + f_plus_3_2 >= -0.666656666666667
Bounds
 0 <= c_0_0 <= 1
 0 <= c_0_1 <= 1
 0 <= c_0_2 <= 1
 0 <= c_1_0 <= 1
 0 <= c_1_1 <= 1
 0 <= c_1_2 <= 1
 0 <= c_2_0 <= 1
 0 <= c_2_1 <= 1
 0 <= c_2_2 <= 1
 0 <= c_3_0 <= 1
 0 <= c_3_1 <= 1
 0 <= c_3_2 <= 1
 0 <= c_minus_0_0 <= 1
 0 <= c_minus_0_1 <= 1
 0 <= c_minus_0_2 <= 1
 0 <= c_minus_1_0 <= 1
 0 <= c_minus_1_1 <= 1
 0 <= c_minus_1_2 <= 1
 0 <= c_minus_2_0 <= 1
 0 <= c_minus_2_1 <= 1
 0 <= c_minus_2_2 <= 1
 0 <= c_minus_3_0 <= 1
 0 <= c_minus_3_1 <= 1
 0 <= c_minus_3_2 <= 1
 0 <= c_zero_0_0 <= 1
 0 <= c_zero_0_1 <= 1
 0 <= c_zero_0_2 <= 1
 0 <= c_zero_1_0 <= 1
 0 <= c_zero_1_1 <= 1
 0 <= c_zero_1_2 <= 1
 0 <= c_zero_2_0 <= 1
 0 <= c_zero_2_1 <= 1
 0 <= c_zero_2_2 <= 1
 0 <= c_zero_3_0 <= 1
 0 <= c_zero_3_1 <= 1
 0 <= c_zero_3_2 <= 1
 0 <= c_plus_0_0 <= 1
 0 <= c_plus_0_1 <= 1
 0 <= c_plus_0_2 <= 1
 0 <= c_plus_1_0 <= 1
 0 <= c_plus_1_1 <= 1
 0 <= c_plus_1_2 <= 1
 0 <= c_plus_2_0 <= 1
 0 <= c_plus_2_1 <= 1
 0 <= c_plus_2_2 <= 1
 0 <= c_plus_3_0 <= 1
 0 <= c_plus_3_1 <= 1
 0 <= c_plus_3_2 <= 1
 0 <= f_minus_0_0 <= 1
 0 <= f_minus_0_1 <= 1
 0 <= f_minus_0_2 <= 1
 0 <= f_minus_1_0 <= 1
 0 <= f_minus_1_1 <= 1
 0 <= f_minus_1_2 <= 1
 0 <= f_minus_2_0 <= 1
 0 <= f_minus_2_1 <= 1
 0 <= f_minus_2_2 <= 1
 0 <= f_minus_3_0 <= 1
 0 <= f_minus_3_1 <= 1
 0 <= f_minus_3_2 <= 1
 0 <= f_plus_0_0 <= 1
 0 <= f_plus_0_1 <= 1
 0 <= f_plus_0_2 <= 1
 0 <= f_plus_1_0 <= 1
 0 <= f_plus_1_1 <= 1
 0 <= f_plus_1_2 <= 1
 0 <= f_plus_2_0 <= 1
 0 <= f_plus_2_1 <= 1
 0 <= f_plus_2_2 <= 1
 0 <= f_plus_3_0 <= 1
 0 <= f_plus_3_1 <= 1
 0 <= f_plus_3_2 <= 1
Binaries
 c_minus_0_0  c_minus_0_1  c_minus_0_2  c_minus_1_0  c_minus_1_1  c_minus_1_2 
 c_minus_2_0  c_minus_2_1  c_minus_2_2  c_minus_3_0  c_minus_3_1  c_minus_3_2 
 c_zero_0_0  c_zero_0_1  c_zero_0_2  c_zero_1_0  c_zero_1_1  c_zero_1_2 
 c_zero_2_0  c_zero_2_1  c_zero_2_2  c_zero_3_0  c_zero_3_1  c_zero_3_2 
 c_plus_0_0  c_plus_0_1  c_plus_0_2  c_plus_1_0  c_plus_1_1  c_plus_1_2 
 c_plus_2_0  c_plus_2_1  c_plus_2_2  c_plus_3_0  c_plus_3_1  c_plus_3_2 
End
